NAME: line_50_3
TYPE: TSP
COMMENT: line_50_3
DIMENSION: 50
EDGE_WEIGHT_TYPE: EUC_2D
NODE_COORD_SECTION
1 0.0 344.0
2 0.0 321.0
3 0.0 397.0
4 0.0 348.0
5 0.0 374.0
6 0.0 254.0
7 0.0 285.0
8 0.0 424.0
9 0.0 4.0
10 0.0 186.0
11 0.0 118.0
12 0.0 5.0
13 0.0 204.0
14 0.0 255.0
15 0.0 12.0
16 0.0 101.0
17 0.0 137.0
18 0.0 365.0
19 0.0 44.0
20 0.0 470.0
21 0.0 129.0
22 0.0 249.0
23 0.0 25.0
24 0.0 214.0
25 0.0 152.0
26 0.0 368.0
27 0.0 481.0
28 0.0 331.0
29 0.0 211.0
30 0.0 49.0
31 0.0 121.0
32 0.0 100.0
33 0.0 330.0
34 0.0 447.0
35 0.0 184.0
36 0.0 42.0
37 0.0 2.0
38 0.0 347.0
39 0.0 216.0
40 0.0 324.0
41 0.0 236.0
42 0.0 487.0
43 0.0 46.0
44 0.0 384.0
45 0.0 16.0
46 0.0 119.0
47 0.0 47.0
48 0.0 305.0
49 0.0 400.0
50 0.0 186.0
